c Arquivo convertido de 1138_bus.mtx
p edge 1138 1458
e 1 5
e 1 563
e 2 10
e 2 563
e 3 11
e 3 34
e 3 35
e 3 104
e 3 475
e 4 7
e 4 27
e 4 101
e 4 102
e 4 103
e 5 9
e 6 7
e 6 37
e 6 98
e 6 103
e 7 37
e 7 101
e 7 102
e 7 103
e 8 26
e 8 35
e 8 724
e 9 10
e 9 104
e 10 104
e 11 12
e 11 38
e 11 566
e 13 34
e 13 104
e 14 413
e 15 16
e 15 17
e 15 18
e 15 19
e 15 411
e 20 21
e 20 37
e 20 102
e 21 22
e 21 23
e 21 24
e 21 25
e 26 35
e 27 28
e 27 29
e 27 30
e 27 101
e 31 32
e 31 100
e 32 100
e 33 100
e 34 104
e 34 553
e 35 104
e 35 710
e 36 711
e 37 102
e 38 39
e 38 98
e 38 412
e 39 99
e 40 41
e 40 43
e 40 45
e 41 42
e 41 44
e 43 146
e 44 486
e 45 49
e 46 48
e 47 48
e 48 54
e 48 506
e 49 50
e 49 53
e 50 51
e 50 52
e 52 125
e 53 54
e 53 55
e 54 425
e 54 445
e 54 447
e 56 63
e 57 66
e 58 70
e 59 67
e 60 68
e 61 130
e 62 129
e 63 64
e 63 65
e 64 71
e 64 131
e 64 226
e 65 1095
e 66 67
e 66 68
e 66 74
e 66 183
e 66 226
e 67 68
e 67 69
e 68 74
e 68 90
e 68 201
e 69 70
e 70 182
e 70 196
e 70 1063
e 70 1065
e 70 1074
e 71 72
e 72 73
e 72 121
e 74 75
e 74 76
e 74 78
e 74 80
e 74 119
e 75 204
e 75 810
e 75 918
e 76 77
e 76 78
e 76 127
e 77 1050
e 78 79
e 78 452
e 79 416
e 79 417
e 79 454
e 80 81
e 80 447
e 80 452
e 81 448
e 81 450
e 81 464
e 82 94
e 83 94
e 84 95
e 85 87
e 85 126
e 86 87
e 86 241
e 86 251
e 86 253
e 86 267
e 86 269
e 86 283
e 86 291
e 86 293
e 86 294
e 86 302
e 86 315
e 87 88
e 89 105
e 89 115
e 90 91
e 91 92
e 91 108
e 91 115
e 91 116
e 92 93
e 93 94
e 93 252
e 93 264
e 93 271
e 93 288
e 93 292
e 93 293
e 93 294
e 93 322
e 93 323
e 93 324
e 93 325
e 93 326
e 94 96
e 94 264
e 94 318
e 94 325
e 95 97
e 95 262
e 95 268
e 95 300
e 96 145
e 96 704
e 96 705
e 97 268
e 99 413
e 100 725
e 100 732
e 101 102
e 101 103
e 102 103
e 103 478
e 105 106
e 105 109
e 107 108
e 108 110
e 109 1029
e 110 111
e 110 328
e 110 367
e 110 370
e 111 367
e 111 368
e 111 701
e 112 113
e 112 370
e 112 686
e 113 114
e 113 115
e 113 690
e 114 1009
e 116 117
e 116 126
e 118 119
e 119 123
e 120 121
e 121 122
e 121 504
e 122 123
e 122 124
e 123 125
e 124 125
e 124 127
e 125 126
e 125 129
e 125 546
e 126 129
e 127 128
e 130 133
e 130 173
e 130 213
e 131 132
e 131 133
e 131 136
e 132 144
e 132 742
e 133 134
e 135 136
e 135 139
e 135 740
e 136 141
e 137 139
e 137 141
e 137 761
e 138 141
e 138 877
e 138 882
e 139 140
e 140 829
e 140 830
e 142 258
e 142 366
e 143 144
e 143 743
e 143 745
e 143 826
e 144 827
e 145 318
e 145 703
e 146 147
e 147 148
e 149 166
e 150 173
e 151 175
e 152 180
e 153 183
e 154 207
e 155 198
e 156 213
e 157 219
e 158 226
e 159 182
e 159 205
e 160 172
e 160 233
e 161 222
e 161 743
e 162 163
e 162 169
e 162 209
e 162 223
e 162 232
e 163 186
e 163 201
e 163 227
e 164 166
e 165 166
e 165 167
e 165 175
e 165 194
e 166 192
e 166 201
e 166 218
e 167 175
e 168 180
e 168 209
e 169 187
e 170 188
e 170 194
e 171 178
e 171 217
e 172 173
e 172 222
e 172 755
e 173 184
e 174 211
e 174 216
e 175 179
e 176 177
e 176 178
e 176 207
e 177 207
e 178 214
e 178 217
e 179 203
e 180 209
e 181 183
e 182 183
e 182 205
e 182 221
e 183 184
e 183 201
e 183 226
e 184 193
e 184 213
e 185 187
e 186 187
e 186 218
e 187 188
e 187 206
e 187 209
e 189 211
e 189 216
e 190 199
e 191 195
e 191 197
e 191 198
e 191 211
e 192 199
e 192 218
e 192 220
e 193 198
e 193 199
e 193 208
e 194 216
e 195 211
e 197 212
e 200 201
e 200 202
e 201 218
e 202 203
e 205 221
e 206 216
e 207 208
e 207 224
e 210 215
e 210 217
e 210 218
e 211 212
e 213 504
e 214 217
e 216 218
e 219 220
e 219 230
e 221 222
e 221 225
e 222 225
e 222 233
e 222 743
e 223 232
e 224 1026
e 227 228
e 228 229
e 228 231
e 228 232
e 231 232
e 234 236
e 234 307
e 235 236
e 235 243
e 235 270
e 235 272
e 235 298
e 235 299
e 236 286
e 237 261
e 237 287
e 237 309
e 237 366
e 237 702
e 238 239
e 238 270
e 239 270
e 239 281
e 240 259
e 241 242
e 241 246
e 241 253
e 241 257
e 241 266
e 241 275
e 241 279
e 241 289
e 241 291
e 241 292
e 241 293
e 241 294
e 241 299
e 241 310
e 241 321
e 241 327
e 242 244
e 242 245
e 244 272
e 245 298
e 246 310
e 247 248
e 247 255
e 248 255
e 249 282
e 250 257
e 250 263
e 250 289
e 250 317
e 251 267
e 252 310
e 252 313
e 254 255
e 254 285
e 255 258
e 255 260
e 255 263
e 256 290
e 256 317
e 256 321
e 258 261
e 258 327
e 259 278
e 260 289
e 262 268
e 262 276
e 262 314
e 264 311
e 265 276
e 265 300
e 266 307
e 267 282
e 267 284
e 267 302
e 268 270
e 268 301
e 269 284
e 270 275
e 270 279
e 270 280
e 270 318
e 270 320
e 273 274
e 273 303
e 273 315
e 274 312
e 277 285
e 277 289
e 278 309
e 283 292
e 288 291
e 295 298
e 296 297
e 297 299
e 300 696
e 301 314
e 303 312
e 304 305
e 304 315
e 304 329
e 305 315
e 306 322
e 308 323
e 311 326
e 312 315
e 315 316
e 315 319
e 315 323
e 316 322
e 318 704
e 319 329
e 324 325
e 330 335
e 331 336
e 332 337
e 333 350
e 334 350
e 335 337
e 336 337
e 337 338
e 337 339
e 337 340
e 338 340
e 339 340
e 340 341
e 340 342
e 341 342
e 342 343
e 342 344
e 342 345
e 342 370
e 343 346
e 344 346
e 345 346
e 346 347
e 346 349
e 346 367
e 347 348
e 348 349
e 349 350
e 351 366
e 352 353
e 352 408
e 352 409
e 353 363
e 353 382
e 354 382
e 354 383
e 355 375
e 356 383
e 356 398
e 357 394
e 357 395
e 358 479
e 359 474
e 360 715
e 361 479
e 361 480
e 362 403
e 362 714
e 363 364
e 363 365
e 363 373
e 363 374
e 363 388
e 363 395
e 363 407
e 363 474
e 366 699
e 367 368
e 367 372
e 369 371
e 371 372
e 375 376
e 375 377
e 375 378
e 375 379
e 375 380
e 375 381
e 375 389
e 375 404
e 383 384
e 383 385
e 383 386
e 383 387
e 383 392
e 388 389
e 388 390
e 388 391
e 388 395
e 388 401
e 388 405
e 392 395
e 393 474
e 393 479
e 394 395
e 395 398
e 395 399
e 395 405
e 395 406
e 395 407
e 395 474
e 396 406
e 396 716
e 396 717
e 397 716
e 397 717
e 400 473
e 401 402
e 401 714
e 404 409
e 406 479
e 406 483
e 406 716
e 406 717
e 410 411
e 410 412
e 410 731
e 411 476
e 411 477
e 411 486
e 412 413
e 412 478
e 412 709
e 412 724
e 414 431
e 414 433
e 415 432
e 415 433
e 416 433
e 416 462
e 417 433
e 417 462
e 418 419
e 418 545
e 420 421
e 420 422
e 420 470
e 423 425
e 423 516
e 424 466
e 424 516
e 425 426
e 425 427
e 425 466
e 426 437
e 426 519
e 428 429
e 428 430
e 428 431
e 428 432
e 433 434
e 433 510
e 433 564
e 435 510
e 436 534
e 437 438
e 437 439
e 437 441
e 437 458
e 439 440
e 439 460
e 441 442
e 443 444
e 443 470
e 443 506
e 443 516
e 444 458
e 445 446
e 445 447
e 447 449
e 447 537
e 448 464
e 449 450
e 450 451
e 452 453
e 454 455
e 456 457
e 456 564
e 458 459
e 458 460
e 460 461
e 462 463
e 464 465
e 464 545
e 465 968
e 466 467
e 468 544
e 469 543
e 471 472
e 471 478
e 471 481
e 471 492
e 471 707
e 471 708
e 473 474
e 475 710
e 475 724
e 476 482
e 477 478
e 478 708
e 478 709
e 479 480
e 479 714
e 479 726
e 481 484
e 481 485
e 481 491
e 481 492
e 481 733
e 482 483
e 484 709
e 484 733
e 485 491
e 486 731
e 487 491
e 488 491
e 489 492
e 490 492
e 491 492
e 491 734
e 492 707
e 493 707
e 494 505
e 495 513
e 496 521
e 497 522
e 498 523
e 499 500
e 499 819
e 499 914
e 501 502
e 501 505
e 501 507
e 501 521
e 501 531
e 501 536
e 502 607
e 502 609
e 502 613
e 502 937
e 503 507
e 503 513
e 503 553
e 504 505
e 505 521
e 505 526
e 505 578
e 507 508
e 507 509
e 507 515
e 507 521
e 507 522
e 507 547
e 508 619
e 508 639
e 508 781
e 509 511
e 509 515
e 509 520
e 509 534
e 510 520
e 511 914
e 511 926
e 512 520
e 513 514
e 513 540
e 514 790
e 514 795
e 515 516
e 515 517
e 515 518
e 515 536
e 515 547
e 517 993
e 517 995
e 519 957
e 519 967
e 521 522
e 522 523
e 523 582
e 523 770
e 523 779
e 523 802
e 524 533
e 524 985
e 524 1001
e 525 568
e 526 527
e 526 531
e 527 921
e 527 933
e 527 1068
e 527 1073
e 527 1074
e 527 1124
e 528 529
e 528 809
e 528 819
e 530 578
e 530 583
e 530 780
e 530 797
e 530 803
e 531 532
e 531 534
e 532 554
e 532 647
e 532 652
e 532 663
e 532 668
e 532 672
e 532 673
e 532 677
e 532 908
e 532 912
e 532 918
e 532 1047
e 534 535
e 534 536
e 534 542
e 535 885
e 536 537
e 536 538
e 536 539
e 536 542
e 538 809
e 538 914
e 538 948
e 538 953
e 538 964
e 540 800
e 541 543
e 542 543
e 542 545
e 542 546
e 543 544
e 548 551
e 549 563
e 550 566
e 551 552
e 551 555
e 551 566
e 552 558
e 552 560
e 553 561
e 553 710
e 554 574
e 554 909
e 555 556
e 555 557
e 555 564
e 555 566
e 556 559
e 556 579
e 556 621
e 556 903
e 557 558
e 558 979
e 558 980
e 558 986
e 558 989
e 558 991
e 558 998
e 558 1000
e 559 579
e 560 980
e 561 562
e 561 566
e 562 563
e 563 567
e 565 567
e 566 567
e 568 773
e 568 795
e 569 785
e 570 579
e 571 776
e 572 783
e 573 796
e 575 581
e 576 582
e 576 784
e 577 786
e 577 802
e 577 1090
e 578 780
e 579 580
e 579 782
e 579 783
e 579 895
e 579 927
e 580 587
e 581 776
e 581 796
e 581 797
e 581 799
e 583 780
e 583 803
e 584 585
e 584 1068
e 585 607
e 585 613
e 585 659
e 586 597
e 587 598
e 587 614
e 588 595
e 588 597
e 589 591
e 590 595
e 590 616
e 591 601
e 592 611
e 593 604
e 594 600
e 596 597
e 596 603
e 596 607
e 599 1105
e 600 601
e 600 782
e 601 602
e 601 633
e 602 640
e 603 604
e 603 605
e 603 1092
e 604 612
e 604 615
e 605 607
e 606 610
e 608 610
e 608 1101
e 609 1068
e 611 615
e 617 1123
e 618 629
e 618 639
e 619 620
e 620 632
e 621 624
e 621 1061
e 622 625
e 622 641
e 623 639
e 623 642
e 624 638
e 625 635
e 626 634
e 626 635
e 627 639
e 628 631
e 628 642
e 629 637
e 629 643
e 630 631
e 630 635
e 630 796
e 632 634
e 632 641
e 635 636
e 636 1094
e 644 652
e 644 662
e 645 650
e 645 1060
e 646 664
e 646 1051
e 647 1041
e 648 678
e 648 1042
e 649 672
e 649 1055
e 650 653
e 651 670
e 651 1045
e 652 653
e 652 663
e 652 666
e 652 668
e 652 676
e 652 1054
e 653 1048
e 654 677
e 654 1057
e 655 657
e 655 665
e 656 678
e 657 1055
e 658 671
e 658 672
e 659 677
e 660 1050
e 660 1058
e 661 677
e 662 672
e 664 1056
e 665 682
e 666 681
e 667 1051
e 669 679
e 669 1058
e 670 1121
e 671 679
e 672 673
e 672 682
e 672 1049
e 672 1050
e 672 1052
e 672 1058
e 672 1121
e 674 675
e 674 1046
e 675 1050
e 676 1043
e 677 678
e 677 1041
e 677 1059
e 680 1047
e 680 1057
e 681 1053
e 683 689
e 684 689
e 685 691
e 686 687
e 686 688
e 688 689
e 688 694
e 688 699
e 688 700
e 688 702
e 689 693
e 690 691
e 690 694
e 690 697
e 691 692
e 691 695
e 693 695
e 694 695
e 697 698
e 699 700
e 706 707
e 707 726
e 708 709
e 711 724
e 711 734
e 712 714
e 713 714
e 714 715
e 714 734
e 716 717
e 718 724
e 719 724
e 720 724
e 721 724
e 722 724
e 723 724
e 724 725
e 724 734
e 727 728
e 727 731
e 728 731
e 729 730
e 729 731
e 730 731
e 735 743
e 736 742
e 737 743
e 738 742
e 739 744
e 740 741
e 740 742
e 740 744
e 741 749
e 741 759
e 742 743
e 743 746
e 744 756
e 745 746
e 747 748
e 747 758
e 748 757
e 749 753
e 750 751
e 750 759
e 752 757
e 752 762
e 754 757
e 754 765
e 755 764
e 756 757
e 760 761
e 761 766
e 761 767
e 762 763
e 766 768
e 768 769
e 768 772
e 770 823
e 771 772
e 773 774
e 773 795
e 773 801
e 773 802
e 775 776
e 775 781
e 776 781
e 776 796
e 776 797
e 776 1127
e 777 793
e 777 795
e 777 800
e 778 779
e 779 780
e 779 787
e 780 797
e 780 949
e 782 783
e 784 802
e 785 786
e 785 788
e 785 796
e 785 797
e 785 802
e 786 1128
e 787 949
e 788 789
e 788 796
e 788 1132
e 789 1094
e 790 791
e 790 795
e 792 799
e 792 1110
e 793 794
e 793 825
e 794 795
e 794 800
e 796 799
e 797 798
e 797 803
e 797 805
e 797 1119
e 798 1114
e 802 1137
e 803 804
e 805 1138
e 806 821
e 807 887
e 808 897
e 809 920
e 810 811
e 810 918
e 812 909
e 813 885
e 813 940
e 813 1122
e 814 815
e 814 909
e 814 918
e 816 817
e 816 927
e 817 818
e 817 907
e 819 820
e 821 888
e 821 897
e 821 921
e 822 880
e 822 885
e 822 935
e 824 825
e 828 837
e 828 838
e 828 874
e 829 833
e 829 839
e 830 833
e 830 840
e 831 841
e 831 869
e 832 842
e 832 869
e 833 843
e 834 844
e 834 874
e 835 845
e 835 862
e 836 846
e 836 869
e 838 859
e 838 860
e 847 848
e 848 873
e 849 854
e 849 863
e 849 864
e 850 855
e 850 873
e 851 856
e 851 858
e 852 857
e 852 869
e 853 876
e 858 873
e 860 861
e 862 863
e 863 869
e 864 865
e 864 869
e 866 869
e 866 877
e 867 878
e 868 869
e 868 871
e 868 877
e 869 870
e 870 871
e 870 877
e 872 882
e 873 882
e 874 878
e 875 876
e 875 882
e 877 878
e 877 883
e 879 882
e 881 882
e 884 937
e 884 1123
e 885 914
e 885 918
e 886 895
e 886 927
e 886 937
e 887 896
e 887 897
e 888 924
e 889 917
e 890 891
e 890 908
e 890 917
e 892 893
e 892 899
e 892 927
e 894 921
e 894 936
e 894 1126
e 895 1125
e 896 897
e 897 913
e 897 917
e 897 944
e 898 914
e 898 926
e 899 900
e 899 908
e 901 913
e 901 1129
e 902 906
e 903 987
e 904 905
e 904 939
e 904 944
e 906 922
e 906 939
e 907 923
e 908 912
e 908 917
e 908 927
e 909 910
e 911 912
e 914 935
e 914 938
e 914 963
e 915 926
e 916 991
e 917 918
e 917 930
e 918 919
e 918 1130
e 919 940
e 921 923
e 921 924
e 921 927
e 921 933
e 921 937
e 922 930
e 922 1133
e 924 925
e 927 928
e 927 937
e 928 929
e 928 937
e 930 931
e 932 949
e 933 934
e 933 942
e 935 947
e 936 937
e 936 1134
e 940 954
e 941 954
e 943 944
e 945 961
e 946 965
e 948 952
e 948 955
e 948 957
e 948 958
e 948 964
e 950 951
e 950 955
e 950 956
e 951 965
e 951 969
e 951 975
e 952 960
e 953 955
e 954 959
e 957 958
e 957 967
e 957 973
e 960 973
e 961 962
e 961 963
e 961 968
e 962 966
e 963 972
e 965 968
e 965 969
e 966 971
e 969 970
e 971 972
e 974 983
e 976 977
e 976 989
e 976 1001
e 978 989
e 979 983
e 981 982
e 981 984
e 981 998
e 983 986
e 985 987
e 985 989
e 987 999
e 988 993
e 988 995
e 989 990
e 991 992
e 993 994
e 995 997
e 995 998
e 996 997
e 997 998
e 1002 1027
e 1003 1035
e 1004 1032
e 1005 1039
e 1006 1007
e 1006 1013
e 1006 1019
e 1006 1021
e 1006 1030
e 1006 1035
e 1008 1023
e 1009 1010
e 1009 1018
e 1009 1019
e 1009 1021
e 1009 1022
e 1009 1040
e 1011 1040
e 1012 1040
e 1013 1023
e 1013 1029
e 1013 1030
e 1013 1037
e 1013 1038
e 1013 1039
e 1014 1039
e 1015 1029
e 1016 1024
e 1016 1034
e 1017 1029
e 1019 1033
e 1020 1021
e 1023 1024
e 1023 1025
e 1023 1027
e 1024 1034
e 1025 1028
e 1026 1027
e 1027 1028
e 1027 1035
e 1030 1031
e 1032 1034
e 1032 1036
e 1035 1036
e 1043 1050
e 1044 1050
e 1044 1053
e 1045 1047
e 1046 1058
e 1049 1054
e 1050 1051
e 1050 1052
e 1051 1056
e 1055 1056
e 1055 1058
e 1059 1061
e 1062 1072
e 1062 1085
e 1063 1074
e 1064 1075
e 1064 1087
e 1065 1077
e 1065 1080
e 1066 1068
e 1067 1071
e 1068 1069
e 1068 1092
e 1069 1086
e 1070 1077
e 1070 1113
e 1071 1088
e 1072 1075
e 1073 1074
e 1074 1075
e 1074 1081
e 1074 1086
e 1075 1082
e 1076 1077
e 1077 1078
e 1077 1080
e 1077 1088
e 1077 1095
e 1078 1084
e 1078 1085
e 1079 1117
e 1083 1087
e 1089 1106
e 1089 1112
e 1090 1091
e 1091 1093
e 1091 1108
e 1093 1098
e 1095 1096
e 1095 1100
e 1095 1105
e 1095 1113
e 1096 1103
e 1096 1107
e 1096 1112
e 1097 1100
e 1098 1099
e 1100 1101
e 1101 1120
e 1102 1112
e 1104 1118
e 1104 1119
e 1106 1109
e 1110 1114
e 1111 1119
e 1114 1115
e 1114 1116
e 1117 1120
e 1122 1136
e 1124 1135
e 1129 1135
e 1131 1136
